c ---- [ banner ] ------------------------------------------------------------
c
c Kissat SAT Solver
c 
c Copyright (c) 2021-2023 Armin Biere University of Freiburg
c Copyright (c) 2019-2021 Armin Biere Johannes Kepler University Linz
c 
c Version 3.1.1 unknown
c gcc (Ubuntu 9.4.0-1ubuntu1~20.04.2) 9.4.0 -W -Wall -O3 -DNDEBUG
c Mon Feb 26 18:18:52 CET 2024 Linux OptiPlex-7080 5.15.0-88-generic x86_64
c
c ---- [ parsing ] -----------------------------------------------------------
c
c opened and reading DIMACS file:
c
c   /home/oliveras/SAT-comp-2023//3728fe50d8038c639c2d9c84e04fe2b1-46bits_11.dimacs.cnf
c
c parsed 'p cnf 689 16922' header
c closing input after reading 523056 bytes (511 KB)
c finished parsing after 0.02 seconds
c
c ---- [ options ] -----------------------------------------------------------
c
c --seed=1                         (different from default '0')
c
c ---- [ solving ] -----------------------------------------------------------
c
c  seconds switched conflicts  irredundant variables
c         MB reductions redundant     trail   remaining
c          level restarts   binary       glue
c
c *  0.02  3 0 0 0  0   0   0 117 16805 0% 0 689 100%
c {  0.02  3 0 0 0  0   0   0 117 16805 0% 0 689 100%
c i  0.02  3 23 0 0  0  57  38 128 16803 14% 2 688 100%
c -  0.05  4 43 0 1 172 1001 714 134 16803 36% 6 688 100%
c }  0.05  4 43 1 1 172 1001 714 134 16803 36% 6 688 100%
c [  0.05  4 0 1 1 172 1001 714 134 16803 0% 0 688 100%
c B  0.05  4 0 1 1 172 1001 714 134 16803 0% 0 688 100%
c d  0.07  4 58 1 1 172 1788 1432 137 16763 39% 8 686 99%
c b  0.07  4 58 1 1 172 1788 1432 137 16763 39% 8 685 99%
c u  0.08  4 58 1 1 172 1788 1430 139 16763 39% 8 685 99%
c v  0.09  4 58 1 1 172 1788 1427 142 16763 39% 8 685 99%
c =  0.12  4 58 1 1 172 1788 1427 143 16722 39% 8 680 99%
c t  0.12  4 58 1 1 172 1788 1426 142 16716 39% 8 680 99%
c ]  0.13  4 56 2 1 172 1910 1541 142 16716 43% 9 680 99%
c {  0.13  4 43 2 1 172 1910 1541 142 16716 36% 6 680 99%
c -  0.13  4 41 2 2 184 2003 1204 128 16716 36% 6 680 99%
c i  0.15  4 34 2 2 201 2693 1787 147 16713 34% 6 679 98%
c i  0.15  4 33 2 2 203 2748 1839 148 16713 33% 6 678 98%
c i  0.15  4 33 2 2 206 2766 1851 153 16711 33% 6 677 98%
c }  0.15  4 31 3 2 207 2910 1987 153 16711 32% 6 677 98%
c
c  seconds  switched conflicts     irredundant variables
c         MB reductions   redundant        trail   remaining
c          level restarts       binary        glue
c
c [  0.15  4 56 3 2 207 2910 1987 153 16711 43% 9 677 98%
c W  0.16  4 56 3 2 207 2910 1987 146 16648 43% 9 677 98%
c -  0.18  4 46 3 3 207 3418 1680 147 16648 39% 9 677 98%
c b  0.18  4 44 3 3 207 3574 1825 152 16643 38% 9 676 98%
c u  0.19  4 44 3 3 207 3574 1815 161 16643 38% 9 676 98%
c v  0.20  4 44 3 3 207 3574 1811 165 16643 38% 9 676 98%
c =  0.24  5 44 3 3 207 3574 1811 168 16623 38% 9 667 97%
c d  0.24  5 44 3 3 207 3574 1787 173 16521 38% 9 665 96%
c t  0.24  5 44 3 3 207 3574 1787 167 16521 38% 9 665 96%
c ]  0.25  4 43 4 3 207 3647 1854 167 16521 39% 9 665 96%
c {  0.25  4 31 4 3 207 3647 1854 167 16521 32% 6 665 96%
c i  0.25  4 30 4 3 214 3813 2001 174 16521 30% 6 664 96%
c -  0.30  5 26 4 4 465 5150 2262 154 16517 25% 6 664 96%
c }  0.33  4 25 5 4 752 6001 3048 160 16514 24% 6 664 96%
c [  0.33  4 43 5 4 752 6001 3048 160 16514 39% 9 664 96%
c I  0.33  4 43 5 4 752 6001 3048 160 16514 39% 9 664 96%
c -  0.41  5 35 5 5 753 7151 3022 164 16511 50% 9 664 96%
c ]  0.41  5 35 6 5 753 7152 3023 164 16511 50% 9 664 96%
c {  0.41  5 25 6 5 753 7152 3023 164 16511 24% 6 664 96%
c d  0.42  5 25 6 5 761 7282 3145 163 16425 24% 6 662 96%
c
c  seconds  switched conflicts     irredundant variables
c         MB reductions   redundant        trail   remaining
c          level restarts       binary        glue
c
c d  0.42  5 25 6 5 761 7282 3145 161 16425 24% 6 661 96%
c u  0.43  4 25 6 5 761 7282 3142 164 16425 24% 6 661 96%
c v  0.44  4 25 6 5 761 7282 3141 165 16425 24% 6 661 96%
c w  0.46  5 25 6 5 761 7282 3141 167 16423 24% 6 661 96%
c t  0.48  5 25 6 5 761 7282 3141 161 16423 24% 6 661 96%
c s  0.56  5 23 6 5 936 8941 4734 187 16061 22% 6 661 96%
c e  0.59  5 23 6 5 936 8941 4734 157 16062 22% 6 650 94%
c s  0.61  5 23 6 5 936 8941 4734 160 15976 22% 6 650 94%
c e  0.62  5 23 6 5 936 8941 4734 160 15976 22% 6 649 94%
c ^  0.62  5 23 6 5 936 8941 4734 160 15976 22% 6 649 94%
c -  0.64  5 23 6 6 1032 9387 3453 160 15976 22% 7 649 94%
c i  0.66  5 23 6 6 1118 9749 3796 162 15975 22% 7 648 94%
c }  0.71  5 22 7 6 1303 11221 5203 166 15975 22% 7 648 94%
c [  0.71  5 35 7 6 1303 11221 5203 166 15975 50% 9 648 94%
c B  0.71  5 35 7 6 1303 11221 5203 166 15975 50% 9 648 94%
c -  0.75  5 33 7 7 1303 11836 4099 160 15975 50% 9 648 94%
c d  0.82  5 30 7 7 1304 13033 5262 162 15933 49% 9 647 94%
c u  0.83  5 30 7 7 1304 13033 5258 166 15933 49% 9 647 94%
c v  0.84  5 30 7 7 1304 13033 5256 168 15933 49% 9 647 94%
c t  0.87  5 30 7 7 1304 13033 5256 159 15933 49% 9 647 94%
c
c  seconds  switched   conflicts     irredundant variables
c         MB reductions     redundant        trail   remaining
c          level  restarts        binary        glue
c
c ]  0.89  5 30 8 7 1304 13302 5509 160 15933 50% 9 647 94%
c {  0.89  5 22 8 7 1304 13302 5509 160 15933 22% 7 647 94%
c i  0.93  5 23 8 7 1502 14184 6368 161 15932 21% 7 646 94%
c i  0.93  5 22 8 7 1502 14213 6394 163 15932 21% 7 645 93%
c -  0.94  5 22 8 8 1559 14482 4587 151 15932 21% 7 645 93%
c -  1.06  5 22 8 9 2045 17311 5102 153 15930 22% 7 645 93%
c 2  1.08  5 22 8 9 2045 17794 5574 152 15930 24% 7 645 93%
c s  1.11  5 22 8 9 2045 17794 5574 152 15744 24% 7 645 93%
c e  1.14  5 22 8 9 2045 17794 5574 140 15755 24% 7 640 93%
c s  1.16  5 22 8 9 2045 17794 5574 140 15721 24% 7 640 93%
c ^  1.17  5 22 8 9 2045 17794 5574 140 15721 24% 7 640 93%
c }  1.24  5 23 9 9 2346 19463 6662 140 15721 24% 8 640 93%
c [  1.24  5 30 9 9 2346 19463 6662 140 15721 50% 9 640 93%
c W  1.25  5 30 9 9 2346 19463 6662 140 15721 50% 9 640 93%
c -  1.29  5 29 9 10 2346 20311 5564 140 15721 53% 9 640 93%
c u  1.35  5 29 9 10 2347 20908 6150 145 15719 54% 9 640 93%
c v  1.36  5 29 9 10 2347 20908 6148 147 15719 54% 9 640 93%
c =  1.38  5 29 9 10 2347 20908 6148 147 15678 54% 9 638 92%
c t  1.38  5 29 9 10 2347 20908 6132 147 15653 54% 9 638 92%
c -  1.54  5 27 9 11 2348 23473 6189 140 15653 51% 9 638 92%
c
c  seconds   switched    conflicts     irredundant variables
c         MB   reductions     redundant        trail   remaining
c          level    restarts        binary        glue
c
c ]  1.57  5 27 10 11 2349 23791 6502 140 15653 51% 9 638 92%
c {  1.57  5 23 10 11 2349 23791 6502 140 15653 24% 8 638 92%
c -  1.71  5 24 10 12 2691 26789 6842 141 15653 25% 8 638 92%
c -  1.88  5 23 10 13 3187 30255 7421 142 15653 25% 8 638 92%
c u  1.94  5 23 10 13 3333 31010 8153 148 15653 26% 8 638 92%
c v  1.96  5 23 10 13 3333 31010 8149 152 15653 26% 8 638 92%
c w  1.98  6 23 10 13 3333 31010 8156 152 15646 26% 8 638 92%
c =  2.01  5 23 10 13 3333 31010 8156 158 15646 26% 8 635 92%
c d  2.01  5 23 10 13 3333 31010 8143 148 15646 26% 8 635 92%
c t  2.02  5 23 10 13 3333 31010 8143 141 15646 26% 8 635 92%
c }  2.07  5 23 11 13 3396 32418 9500 141 15646 26% 8 635 92%
c [  2.07  5 27 11 13 3396 32418 9500 141 15646 51% 9 635 92%
c O  2.07  5 27 11 13 3396 32418 9500 141 15646 51% 9 635 92%
c -  2.15  5 27 11 14 3397 33860 7988 141 15646 51% 9 635 92%
c s  2.39  5 26 11 14 3399 36922 10979 142 15474 50% 9 635 92%
c e  2.42  5 26 11 14 3399 36922 10979 139 15471 50% 9 631 91%
c s  2.43  5 26 11 14 3399 36922 10979 139 15461 50% 9 631 91%
c ^  2.43  5 26 11 14 3399 36922 10979 139 15461 50% 9 631 91%
c -  2.48  6 26 11 15 3399 37601 8218 139 15461 51% 9 631 91%
c ]  2.56  6 26 12 15 3400 38493 9093 139 15461 52% 9 631 91%
c
c  seconds   switched    conflicts     irredundant variables
c         MB   reductions     redundant        trail   remaining
c          level    restarts        binary        glue
c
c {  2.56  6 23 12 15 3400 38493 9093 139 15461 26% 8 631 91%
c -  2.72  6 23 12 16 3560 41473 8906 139 15461 28% 8 631 91%
c u  2.82  6 23 12 16 3669 43437 10793 139 15461 27% 8 631 91%
c v  2.85  6 23 12 16 3669 43437 10793 139 15461 27% 8 631 91%
c w  2.87  5 23 12 16 3669 43437 10801 141 15451 27% 8 631 91%
c =  2.91  6 23 12 16 3669 43437 10801 143 15451 27% 8 630 91%
c d  2.91  6 23 12 16 3669 43437 10790 140 15451 27% 8 630 91%
c t  2.91  6 23 12 16 3669 43437 10790 138 15451 27% 8 630 91%
c -  2.98  6 22 12 17 3730 45473 9852 138 15451 27% 8 630 91%
c i  3.03  6 21 12 17 3730 47444 11779 145 15451 26% 8 629 91%
c -  3.10  6 20 12 18 3840 49597 9434 145 15451 25% 8 629 91%
c }  3.11  5 20 13 18 3840 49972 9807 147 15451 25% 8 629 91%
c [  3.11  6 26 13 18 3840 49972 9807 147 15451 52% 9 629 91%
c B  3.11  6 26 13 18 3840 49972 9807 147 15451 52% 9 629 91%
c -  3.42  7 25 13 19 3842 53841 10249 147 15451 53% 10 629 91%
c ]  3.52  6 25 14 19 3844 55392 11780 147 15451 52% 9 629 91%
c {  3.52  6 20 14 19 3844 55392 11780 147 15451 25% 8 629 91%
c -  3.69  7 20 14 20 4110 58200 11034 148 15451 26% 8 629 91%
c u  3.72  6 20 14 20 4110 58242 11007 218 15361 26% 8 629 91%
c v  3.74  6 20 14 20 4110 58242 10973 252 15361 26% 8 629 91%
c
c  seconds   switched    conflicts      irredundant variables
c         MB   reductions      redundant        trail   remaining
c          level    restarts         binary        glue
c
c w  3.76  6 20 14 20 4110 58242 11005 315 15266 26% 8 629 91%
c =  3.81  6 20 14 20 4110 58242 11005 315 15206 26% 8 627 91%
c t  3.81  6 20 14 20 4110 58242 10130 314 15189 26% 8 627 91%
c -  4.10  7 21 14 21 4308 62672 11786 145 15189 30% 7 627 91%
c -  4.46  7 21 14 22 4984 67254 12833 147 15189 32% 8 627 91%
c s  4.49  7 21 14 22 5052 67624 13151 148 15058 31% 8 627 91%
c e  4.52  6 21 14 22 5052 67624 13151 126 15146 31% 8 605 88%
c 2  4.52  6 21 14 22 5052 67624 13151 125 15146 31% 8 605 88%
c s  4.53  6 21 14 22 5052 67624 13151 131 14989 31% 8 605 88%
c ^  4.54  6 21 14 22 5052 67624 13151 131 14989 31% 8 605 88%
c }  4.68  7 21 15 22 5304 70108 14411 133 14989 32% 8 605 88%
c [  4.68  7 25 15 22 5304 70108 14411 133 14989 52% 9 605 88%
c W  4.68  7 25 15 22 5304 70108 14411 133 14989 52% 9 605 88%
c -  4.83  7 25 15 23 5305 71944 12535 133 14989 54% 9 605 88%
c u  5.15  7 24 15 23 5308 75523 16064 156 14989 55% 9 605 88%
c v  5.19  7 24 15 23 5308 75523 16053 167 14989 55% 9 605 88%
c w  5.23  7 24 15 23 5308 75523 16111 174 14924 55% 9 605 88%
c =  5.30  8 24 15 23 5308 75523 16111 174 14919 55% 9 604 88%
c t  5.30  8 24 15 23 5308 75523 16107 140 14917 55% 9 604 88%
c -  5.40  8 24 15 24 5309 76739 12863 133 14917 54% 10 604 88%
c
c  seconds   switched    conflicts      irredundant  variables
c         MB   reductions      redundant        trail    remaining
c          level    restarts         binary         glue
c
c ]  5.80  8 23 16 24 5310 81366 17404 133 14917 53% 10 604 88%
c {  5.80  8 21 16 24 5310 81366 17404 133 14917 32% 8 604 88%
c -  5.82  8 21 16 25 5360 81637 12593 133 14917 32% 8 604 88%
c -  6.18  8 21 16 26 5863 86637 13414 137 14917 33% 8 604 88%
c -  6.48  8 21 16 27 6441 91736 14373 141 14915 33% 8 604 88%
c d  6.68  8 21 16 27 6896 95230 17803 139 14915 33% 8 603 87%
c u  6.73  8 21 16 27 6896 95230 17785 157 14915 33% 8 603 87%
c v  6.77  8 21 16 27 6896 95230 17785 157 14915 33% 8 603 87%
c w  6.80  8 21 16 27 6896 95230 17795 159 14903 33% 8 603 87%
c t  6.89  8 21 16 27 6896 95230 17795 141 14903 33% 8 603 87%
c -  7.02  8 21 16 28 7001 96932 15002 141 14903 34% 8 603 87%
c i  7.19  8 21 16 28 7409 99468 17474 144 14903 33% 8 602 87%
c }  7.20  8 21 17 28 7418 99704 17683 145 14903 33% 8 602 87%
c [  7.20  9 23 17 28 7418 99704 17683 145 14903 53% 10 602 87%
c I  7.20  9 23 17 28 7418 99704 17683 145 14903 53% 10 602 87%
c -  7.42  9 23 17 29 7420 102224 15323 138 14903 52% 10 602 87%
c -  7.90  9 23 17 30 7423 107610 15403 138 14903 52% 10 602 87%
c s  8.25  9 23 17 30 7424 110970 18727 138 14797 53% 10 602 87%
c e  8.28  7 23 17 30 7424 110970 18727 123 14883 53% 10 589 85%
c s  8.29  7 23 17 30 7424 110970 18727 123 14861 53% 10 589 85%
c
c  seconds   switched    conflicts       irredundant  variables
c         MB   reductions       redundant        trail    remaining
c          level    restarts          binary         glue
c
c ^  8.30  7 23 17 30 7424 110970 18727 123 14861 53% 10 589 85%
c ]  8.41  8 23 18 30 7425 112495 18174 124 14861 53% 10 589 85%
c {  8.41  9 21 18 30 7425 112495 18174 124 14861 33% 8 589 85%
c -  8.45  8 21 18 31 7529 113088 14615 126 14861 33% 8 589 85%
c u  8.74  9 21 18 31 7669 117535 18955 128 14860 33% 8 589 85%
c v  8.79  9 21 18 31 7669 117535 18955 128 14860 33% 8 589 85%
c w  8.83  9 21 18 31 7669 117535 18955 128 14860 33% 8 589 85%
c -  9.04  9 21 18 32 7676 118655 16201 128 14860 34% 8 589 85%
c i  9.29  9 20 18 32 7677 121354 18874 129 14860 35% 8 588 85%
c -  9.50  9 20 18 33 7872 124311 17975 120 14860 35% 8 588 85%
c - 10.01  9 20 18 34 8081 130055 19404 124 14859 37% 7 588 85%
c } 10.37 10 20 19 34 8596 134843 24103 126 14859 38% 8 588 85%
c [ 10.37 10 23 19 34 8596 134843 24103 126 14859 53% 10 588 85%
c B 10.37 10 23 19 34 8596 134843 24103 126 14859 53% 10 588 85%
c - 10.47 10 23 19 35 8597 135885 19694 126 14859 52% 10 588 85%
c - 10.95 10 23 19 36 8601 141802 18986 126 14859 52% 10 588 85%
c u 11.07 10 23 19 36 8601 142490 19672 126 14856 52% 10 588 85%
c v 11.13 10 23 19 36 8601 142490 19662 136 14856 52% 10 588 85%
c w 11.18 10 23 19 36 8601 142490 19664 136 14854 52% 10 588 85%
c t 11.30 10 23 19 36 8601 142490 19664 126 14854 52% 10 588 85%
c
c  seconds   switched    conflicts       irredundant  variables
c         MB   reductions       redundant        trail    remaining
c          level    restarts          binary         glue
c
c - 11.83 10 22 19 37 8603 147802 18700 126 14854 52% 10 588 85%
c ] 12.37 10 22 20 37 8608 153624 24470 126 14854 52% 10 588 85%
c { 12.37 10 20 20 37 8608 153624 24470 126 14854 38% 8 588 85%
c - 12.39 10 20 20 38 8676 153884 19741 126 14854 37% 8 588 85%
c - 12.85 10 20 20 39 9620 160049 20409 128 14853 37% 8 588 85%
c - 13.35  9 20 20 40 10453 166296 20538 128 14853 37% 8 588 85%
c s 13.52 10 20 20 40 10549 168237 22437 128 14822 37% 8 588 85%
c e 13.54  8 20 20 40 10549 168237 22437 118 14905 37% 8 582 84%
c s 13.54  8 20 20 40 10549 168237 22437 119 14845 37% 8 582 84%
c ! 13.55  8 20 20 40 10549 168237 22437 119 14845 37% 8 582 84%
c u 13.79 10 20 20 40 10792 170145 23273 119 14845 37% 8 582 84%
c v 13.86 10 20 20 40 10792 170145 23273 119 14845 37% 8 582 84%
c w 13.92 10 20 20 40 10792 170145 23316 131 14790 37% 8 582 84%
c t 14.06 10 20 20 40 10792 170145 23316 124 14790 37% 8 582 84%
c - 14.26 10 20 20 41 10877 172621 21098 125 14790 38% 8 582 84%
c - 14.82 10 20 20 42 11230 179027 22781 126 14790 39% 8 582 84%
c } 14.93 10 20 21 42 11334 180364 24112 126 14790 39% 8 582 84%
c [ 14.93 10 22 21 42 11334 180364 24112 126 14790 52% 10 582 84%
c W 14.93 10 22 21 42 11334 180364 24112 126 14790 52% 10 582 84%
c - 15.51 10 22 21 43 11337 185508 23104 126 14790 52% 10 582 84%
c
c  seconds   switched     conflicts       irredundant  variables
c         MB   reductions        redundant        trail    remaining
c          level    restarts           binary         glue
c
c - 16.21 11 21 21 44 11340 192065 23475 126 14790 51% 10 582 84%
c - 16.90 10 21 21 45 11345 198698 23773 126 14790 51% 10 582 84%
c ] 17.01 10 21 22 45 11346 199855 24905 126 14790 51% 10 582 84%
c { 17.01 10 20 22 45 11346 199855 24905 126 14790 39% 8 582 84%
c b 17.06 10 20 22 45 11359 200545 25581 126 14790 39% 8 581 84%
c u 17.15 11 20 22 45 11359 200545 25578 126 14790 39% 8 581 84%
c v 17.23 11 20 22 45 11359 200545 25578 126 14790 39% 8 581 84%
c w 17.30 10 20 22 45 11359 200545 25590 137 14755 39% 8 581 84%
c t 17.47 11 20 22 45 11359 200545 25590 127 14755 39% 8 581 84%
c - 17.79 11 20 22 46 11514 205408 24862 118 14755 39% 8 581 84%
c - 18.29 11 20 22 47 11764 212192 26017 118 14755 39% 8 581 84%
c - 18.75 11 20 22 48 11894 219048 27107 118 14755 38% 8 581 84%
c - 19.05 10 20 22 49 11964 225976 28910 118 14755 37% 7 581 84%
c } 19.40 11 19 23 49 12098 231372 34109 119 14754 37% 7 581 84%
c [ 19.40 11 21 23 49 12098 231372 34109 119 14754 51% 10 581 84%
c O 19.40 11 21 23 49 12098 231372 34109 119 14754 51% 10 581 84%
c - 19.58 11 21 23 50 12099 232978 30214 119 14754 51% 10 581 84%
c u 19.72 11 21 23 50 12100 233736 30967 121 14754 51% 10 581 84%
c v 19.78 12 21 23 50 12100 233736 30966 122 14754 51% 10 581 84%
c w 19.84 12 21 23 50 12100 233736 30967 122 14753 51% 10 581 84%
c
c  seconds   switched     conflicts       irredundant  variables
c         MB   reductions        redundant        trail    remaining
c          level    restarts           binary         glue
c
c t 19.97 12 21 23 50 12100 233736 30967 119 14753 51% 10 581 84%
c - 20.76 12 21 23 51 12104 240049 29121 119 14753 51% 10 581 84%
c s 20.84 11 21 23 51 12104 240568 29638 119 14694 51% 10 581 84%
c e 20.85  9 21 23 51 12104 240568 29638 116 14712 51% 10 579 84%
c s 20.86  9 21 23 51 12104 240568 29638 116 14705 51% 10 579 84%
c - 21.66 12 21 23 52 12107 247190 28116 116 14705 51% 10 579 84%
c ] 21.70 11 21 24 52 12107 247563 28479 116 14705 51% 10 579 84%
c { 21.70 11 19 24 52 12107 247563 28479 116 14705 37% 7 579 84%
c i 21.76 11 19 24 52 12128 249386 30199 125 14705 36% 7 578 84%
c - 22.24 11 19 24 53 13126 254402 27818 120 14705 36% 7 578 84%
c - 22.99 11 19 24 54 14504 261682 28012 122 14705 35% 8 578 84%
c - 23.71 12 19 24 55 15092 269031 29563 122 14705 36% 8 578 84%
c u 23.88 12 19 24 55 15239 269777 30290 144 14643 36% 8 578 84%
c v 23.99 12 19 24 55 15239 269777 30290 144 14643 36% 8 578 84%
c w 24.08 11 19 24 55 15239 269777 30301 152 14624 36% 8 578 84%
c t 24.29 14 19 24 55 15239 269777 30301 126 14624 36% 8 578 84%
c - 24.93 15 19 24 56 15818 276447 31171 127 14624 36% 8 578 84%
c - 25.70 14 19 24 57 17122 283931 31050 127 14624 36% 8 578 84%
c } 25.73 14 19 25 57 17186 284240 31351 127 14624 36% 8 578 84%
c [ 25.73 14 21 25 57 17186 284240 31351 127 14624 51% 10 578 84%
c
c  seconds   switched     conflicts       irredundant  variables
c         MB   reductions        redundant        trail    remaining
c          level    restarts           binary         glue
c
c B 25.73 14 21 25 57 17186 284240 31351 127 14624 51% 10 578 84%
c - 26.57 14 21 25 58 17191 291482 31091 127 14624 51% 10 578 84%
c - 27.55 15 21 25 59 17195 299098 31253 127 14624 51% 10 578 84%
c - 28.53 14 21 25 60 17199 306779 32191 127 14624 51% 10 578 84%
c u 28.85 14 20 25 60 17199 308641 33994 176 14624 51% 10 578 84%
c v 28.96 15 20 25 60 17199 308641 33993 177 14624 51% 10 578 84%
c w 29.07 14 20 25 60 17199 308641 34030 187 14577 51% 10 578 84%
c t 29.33 14 20 25 60 17199 308641 34030 129 14577 51% 10 578 84%
c ] 29.66 15 21 26 60 17200 313326 38659 129 14577 49% 10 578 84%
c { 29.66 15 19 26 60 17200 313326 38659 129 14577 36% 8 578 84%
c - 29.78 14 19 26 61 17286 314525 32953 129 14577 36% 8 578 84%
c - 30.62 14 19 26 62 18297 322336 33299 129 14577 36% 8 578 84%
c s 31.33 15 19 26 62 18981 328849 39714 129 14537 36% 8 578 84%
c e 31.34 12 19 26 62 18981 328849 39714 125 14542 36% 8 576 83%
c - 31.53 14 19 26 63 19121 330210 34131 125 14542 36% 8 576 83%
c - 32.43 15 19 26 64 19737 338147 35968 125 14542 37% 8 576 83%
c - 33.36 15 19 26 65 20232 346147 37509 125 14542 38% 8 576 83%
c u 33.97 15 19 26 65 20270 350417 41639 169 14542 39% 8 576 83%
c v 34.10 16 19 26 65 20270 350417 41638 170 14542 39% 8 576 83%
c w 34.20 16 19 26 65 20270 350417 41644 170 14536 39% 8 576 83%
c
c  seconds   switched     conflicts       irredundant variables
c         MB   reductions        redundant        trail   remaining
c          level    restarts           binary        glue
c
c t 34.45 16 19 26 65 20270 350417 41644 126 14536 39% 8 576 83%
c - 34.88 14 19 26 66 20739 354210 38188 126 14536 39% 8 576 83%
c } 35.05 15 19 27 66 20739 355546 39488 126 14536 39% 8 576 83%
c [ 35.05 15 21 27 66 20739 355546 39488 126 14536 49% 10 576 83%
c W 35.07 15 21 27 66 20739 355546 39488 126 14536 49% 10 576 83%
c - 35.94 15 20 27 67 20744 362337 38280 126 14536 49% 10 576 83%
c - 37.07 15 20 27 68 20748 370522 37633 126 14536 49% 10 576 83%
c - 38.29 15 20 27 69 20752 378768 37144 126 14536 49% 10 576 83%
c ] 38.87 15 20 27 69 20753 383183 41519 126 14536 49% 10 576 83%
c 1 38.87 15 19 27 69 20753 383183 41519 126 14536 39% 8 576 83%
c
c ---- [ result ] ------------------------------------------------------------
c
s SATISFIABLE
v 1 2 3 4 -5 -6 -7 -8 9 -10 -11 12 13 14 15 -16 17 -18 19 -20 21 22 23 -24 25
v -26 27 -28 -29 30 -31 32 -33 -34 -35 36 -37 38 -39 40 -41 -42 -43 44 -45 46
v -47 48 -49 50 51 52 -53 54 55 56 57 -58 -59 -60 -61 -62 -63 64 -65 66 67 -68
v 69 -70 -71 -72 -73 74 -75 76 -77 -78 -79 80 81 82 -83 84 -85 -86 -87 88 -89
v -90 91 92 -93 -94 -95 -96 -97 98 99 -100 -101 -102 -103 -104 -105 106 107
v -108 -109 -110 111 112 -113 -114 -115 -116 117 -118 -119 120 -121 -122 -123
v -124 -125 126 127 -128 129 -130 131 -132 133 134 135 136 137 -138 -139 140
v -141 -142 -143 -144 -145 -146 147 -148 149 150 -151 -152 153 154 -155 -156
v -157 -158 159 -160 -161 162 163 -164 -165 -166 -167 -168 169 170 171 -172
v -173 174 -175 -176 -177 -178 179 -180 -181 -182 -183 184 185 -186 -187 188
v -189 -190 191 192 193 -194 -195 -196 197 -198 199 -200 201 -202 -203 -204
v -205 -206 -207 208 209 210 211 -212 213 214 215 -216 217 -218 219 220 -221
v -222 -223 224 225 226 227 228 229 -230 231 -232 -233 -234 -235 -236 -237
v -238 -239 -240 -241 242 -243 244 245 246 -247 248 249 250 251 -252 -253 254
v -255 -256 -257 -258 -259 260 261 -262 -263 -264 265 266 267 268 -269 -270
v -271 -272 -273 274 -275 -276 -277 278 -279 -280 281 282 -283 -284 285 -286
v 287 288 289 -290 -291 292 -293 -294 295 -296 297 298 -299 -300 -301 302 -303
v -304 305 -306 -307 -308 309 310 -311 -312 -313 -314 315 316 317 -318 -319
v -320 321 322 -323 324 -325 326 -327 328 329 -330 -331 332 -333 -334 -335
v -336 -337 -338 -339 -340 -341 342 343 344 345 -346 347 -348 -349 350 351
v -352 -353 -354 355 -356 -357 -358 359 -360 361 362 -363 364 -365 -366 367
v -368 -369 -370 371 372 -373 -374 -375 -376 377 -378 -379 -380 -381 382 -383
v 384 -385 -386 -387 388 389 -390 391 -392 393 -394 -395 -396 -397 398 -399
v -400 -401 402 -403 -404 -405 -406 -407 -408 409 410 411 -412 -413 -414 -415
v -416 -417 418 419 -420 -421 -422 423 424 -425 -426 -427 428 -429 -430 -431
v 432 -433 434 435 -436 437 438 -439 -440 441 -442 -443 -444 -445 -446 -447
v -448 -449 450 451 -452 453 -454 -455 -456 457 -458 -459 -460 -461 462 -463
v -464 -465 466 -467 -468 469 470 -471 -472 473 474 -475 476 -477 -478 -479
v -480 481 -482 -483 484 485 -486 -487 -488 489 -490 -491 -492 493 494 -495
v -496 -497 -498 499 500 -501 -502 -503 -504 -505 -506 507 -508 -509 510 511
v -512 -513 514 515 -516 517 -518 -519 -520 521 -522 -523 -524 -525 -526 -527
v 528 529 -530 -531 -532 533 534 535 -536 -537 -538 -539 -540 -541 542 543
v -544 545 546 547 -548 -549 -550 -551 552 -553 -554 555 -556 557 -558 -559
v -560 561 -562 -563 564 565 -566 -567 -568 -569 570 -571 -572 -573 -574 575
v 576 577 -578 -579 -580 -581 -582 -583 584 -585 -586 -587 -588 -589 -590 -591
v 592 593 -594 -595 -596 -597 -598 599 600 -601 602 -603 -604 -605 606 -607
v -608 609 610 611 -612 -613 614 615 -616 -617 -618 619 -620 621 -622 623 -624
v -625 -626 -627 -628 629 630 -631 -632 -633 -634 635 636 637 638 -639 -640
v 641 -642 -643 -644 -645 646 647 -648 -649 -650 651 -652 -653 -654 -655 656
v 657 -658 659 -660 -661 662 663 664 -665 666 -667 -668 -669 -670 -671 -672
v 673 674 -675 -676 677 -678 -679 -680 681 682 -683 -684 685 -686 687 -688
v -689 0
c
c ---- [ profiling ] ---------------------------------------------------------
c
c          34.00   87.46 %  search
c          17.71   45.56 %  focused
c          16.29   41.91 %  stable
c           4.86   12.50 %  simplify
c           4.33   11.15 %  probe
c           2.49    6.40 %  vivify
c           1.71    4.40 %  sweep
c           0.50    1.28 %  eliminate
c           0.28    0.73 %  reduce
c           0.26    0.66 %  subsume
c           0.12    0.32 %  substitute
c           0.03    0.07 %  walking
c           0.02    0.04 %  parse
c           0.01    0.03 %  transitive
c           0.00    0.00 %  backbone
c           0.00    0.00 %  extend
c           0.00    0.00 %  warmup
c =============================================
c          38.87  100.00 %  total
c
c ---- [ statistics ] --------------------------------------------------------
c
c chronological:                            1                0 %  conflicts
c conflicts:                           383183             9856.66 per second
c decisions:                           857505                2.24 per conflict
c eliminated:                              66               10 %  variables
c jumped_reasons:                      119523                0 %  propagations
c propagations:                      29377398           755678    per second
c queue_decisions:                     608731               71 %  decision
c random_decisions:                     80962                9 %  decision
c random_sequences:                       170             2254    interval
c reductions:                              69             5553    interval
c rephased:                                14            27370    interval
c restarts:                             20753               18.46 interval
c score_decisions:                     167812               20 %  decision
c strengthened:                          2116                0 %  checks
c substituted:                             11                2 %  variables
c subsumed:                              1370                0 %  checks
c switched:                                27            14192    interval
c vivified:                             11589               11 %  checks
c vivify_checks:                       102382             5688    per vivify
c vivify_units:                             0                0 %  variables
c walk_improved:                            5              100 %  walks
c walks:                                    5            76637    interval
c
c ---- [ resources ] ---------------------------------------------------------
c
c maximum-resident-set-size:         16777216 bytes         16 MB
c process-time:                            39s              38.87 seconds
c
c ---- [ shutting down ] -----------------------------------------------------
c
c exit 10
